p cnf 509 1218
a 364 367 371 374 379 382 444 388 394 397 401 404 409 412 416 419 343 346 354 357 286 289 293 296 305 308 312 315 324 327 331 334 7 13 24 30 2 1 40 18 6 12 35 23 29 50 45 60 55 70 65 80 75 85 90 95 105 100 110 115 120 130 125 135 140 145 150 180 162 154 158 175 167 171 190 185 200 195 205 216 211 221 226 231 241 236 246 251 256 265 261 270 275 280 285 304 323 342 353 0
d 206 7 13 0
d 426 285 304 323 342 353 0
d 386 444 2 0
d 3 2 0
d 4 1 2 0
d 5 1 2 0
d 8 7 0
d 9 6 7 0
d 10 6 7 0
d 11 1 2 6 7 0
d 14 13 0
d 15 12 13 0
d 16 12 13 0
d 17 1 2 6 7 12 13 0
d 19 6 12 0
d 20 18 6 12 0
d 21 18 6 12 0
d 22 1 2 6 7 12 13 18 0
d 25 24 0
d 26 23 24 0
d 27 23 24 0
d 28 1 2 6 7 12 13 18 23 24 0
d 31 30 0
d 32 29 30 0
d 33 29 30 0
d 34 1 2 6 7 12 13 18 23 24 29 30 0
d 36 23 29 0
d 37 35 23 29 0
d 38 35 23 29 0
d 39 1 2 6 7 12 13 18 23 24 29 30 35 0
d 41 18 35 0
d 42 40 18 35 0
d 43 40 18 35 0
d 44 1 2 6 7 12 13 18 23 24 29 30 35 40 0
d 46 7 12 0
d 47 45 7 12 0
d 48 45 7 12 0
d 49 1 2 6 7 12 13 18 23 24 29 30 35 40 45 0
d 51 45 35 0
d 52 50 45 35 0
d 53 50 45 35 0
d 54 1 2 6 7 12 13 18 23 24 29 30 35 40 45 50 0
d 56 6 13 0
d 57 55 6 13 0
d 58 55 6 13 0
d 59 1 2 6 7 12 13 18 23 24 29 30 35 40 45 50 55 0
d 61 55 35 0
d 62 60 55 35 0
d 63 60 55 35 0
d 64 1 2 6 7 12 13 18 23 24 29 30 35 40 45 50 55 60 0
d 66 7 13 0
d 67 65 7 13 0
d 68 65 7 13 0
d 69 1 2 6 7 12 13 18 23 24 29 30 35 40 45 50 55 60 65 0
d 71 65 35 0
d 72 70 65 35 0
d 73 70 65 35 0
d 74 1 2 6 7 12 13 18 23 24 29 30 35 40 45 50 55 60 65 70 0
d 76 24 29 0
d 77 75 24 29 0
d 78 75 24 29 0
d 79 1 2 6 7 12 13 18 23 24 29 30 35 40 45 50 55 60 65 70 75 0
d 81 18 75 0
d 82 80 18 75 0
d 83 80 18 75 0
d 84 1 2 6 7 12 13 18 23 24 29 30 35 40 45 50 55 60 65 70 75 80 0
d 86 45 75 0
d 87 85 45 75 0
d 88 85 45 75 0
d 89 1 2 6 7 12 13 18 23 24 29 30 35 40 45 50 55 60 65 70 75 80 85 0
d 91 55 75 0
d 92 90 55 75 0
d 93 90 55 75 0
d 94 1 2 6 7 12 13 18 23 24 29 30 35 40 45 50 55 60 65 70 75 80 85 90 0
d 96 65 75 0
d 97 95 65 75 0
d 98 95 65 75 0
d 99 1 2 6 7 12 13 18 23 24 29 30 35 40 45 50 55 60 65 70 75 80 85 90 95 0
d 101 23 30 0
d 102 100 23 30 0
d 103 100 23 30 0
d 104 1 2 6 7 12 13 18 23 24 29 30 35 40 45 50 55 60 65 70 75 80 85 90 95 100 0
d 106 18 100 0
d 107 105 18 100 0
d 108 105 18 100 0
d 109 1 2 6 7 12 13 18 23 24 29 30 35 40 45 50 55 60 65 70 75 80 85 90 95 100 105 0
d 111 45 100 0
d 112 110 45 100 0
d 113 110 45 100 0
d 114 1 2 6 7 12 13 18 23 24 29 30 35 40 45 50 55 60 65 70 75 80 85 90 95 100 105 110 0
d 116 55 100 0
d 117 115 55 100 0
d 118 115 55 100 0
d 119 1 2 6 7 12 13 18 23 24 29 30 35 40 45 50 55 60 65 70 75 80 85 90 95 100 105 110 115 0
d 121 65 100 0
d 122 120 65 100 0
d 123 120 65 100 0
d 124 1 2 6 7 12 13 18 23 24 29 30 35 40 45 50 55 60 65 70 75 80 85 90 95 100 105 110 115 120 0
d 126 24 30 0
d 127 125 24 30 0
d 128 125 24 30 0
d 129 1 2 6 7 12 13 18 23 24 29 30 35 40 45 50 55 60 65 70 75 80 85 90 95 100 105 110 115 120 125 0
d 131 18 125 0
d 132 130 18 125 0
d 133 130 18 125 0
d 134 1 2 6 7 12 13 18 23 24 29 30 35 40 45 50 55 60 65 70 75 80 85 90 95 100 105 110 115 120 125 130 0
d 136 45 125 0
d 137 135 45 125 0
d 138 135 45 125 0
d 139 1 2 6 7 12 13 18 23 24 29 30 35 40 45 50 55 60 65 70 75 80 85 90 95 100 105 110 115 120 125 130 135 0
d 141 55 125 0
d 142 140 55 125 0
d 143 140 55 125 0
d 144 1 2 6 7 12 13 18 23 24 29 30 35 40 45 50 55 60 65 70 75 80 85 90 95 100 105 110 115 120 125 130 135 140 0
d 146 65 125 0
d 147 145 65 125 0
d 148 145 65 125 0
d 149 1 2 6 7 12 13 18 23 24 29 30 35 40 45 50 55 60 65 70 75 80 85 90 95 100 105 110 115 120 125 130 135 140 145 0
d 151 150 2 0
d 152 150 2 0
d 153 1 2 6 7 12 13 18 23 24 29 30 35 40 45 50 55 60 65 70 75 80 85 90 95 100 105 110 115 120 125 130 135 140 145 150 0
d 155 154 7 0
d 156 154 7 0
d 157 1 2 6 7 12 13 18 23 24 29 30 35 40 45 50 55 60 65 70 75 80 85 90 95 100 105 110 115 120 125 130 135 140 145 150 154 0
d 159 158 13 0
d 160 158 13 0
d 161 1 2 6 7 12 13 18 23 24 29 30 35 40 45 50 55 60 65 70 75 80 85 90 95 100 105 110 115 120 125 130 135 140 145 150 154 158 0
d 163 154 158 0
d 164 162 154 158 0
d 165 162 154 158 0
d 166 1 2 6 7 12 13 18 23 24 29 30 35 40 45 50 55 60 65 70 75 80 85 90 95 100 105 110 115 120 125 130 135 140 145 150 154 158 162 0
d 168 167 24 0
d 169 167 24 0
d 170 1 2 6 7 12 13 18 23 24 29 30 35 40 45 50 55 60 65 70 75 80 85 90 95 100 105 110 115 120 125 130 135 140 145 150 154 158 162 167 0
d 172 171 30 0
d 173 171 30 0
d 174 1 2 6 7 12 13 18 23 24 29 30 35 40 45 50 55 60 65 70 75 80 85 90 95 100 105 110 115 120 125 130 135 140 145 150 154 158 162 167 171 0
d 176 167 171 0
d 177 175 167 171 0
d 178 175 167 171 0
d 179 1 2 6 7 12 13 18 23 24 29 30 35 40 45 50 55 60 65 70 75 80 85 90 95 100 105 110 115 120 125 130 135 140 145 150 154 158 162 167 171 175 0
d 181 162 175 0
d 182 180 162 175 0
d 183 180 162 175 0
d 184 1 2 6 7 12 13 18 23 24 29 30 35 40 45 50 55 60 65 70 75 80 85 90 95 100 105 110 115 120 125 130 135 140 145 150 154 158 162 167 171 175 180 0
d 186 7 158 0
d 187 185 7 158 0
d 188 185 7 158 0
d 189 1 2 6 7 12 13 18 23 24 29 30 35 40 45 50 55 60 65 70 75 80 85 90 95 100 105 110 115 120 125 130 135 140 145 150 154 158 162 167 171 175 180 185 0
d 191 185 175 0
d 192 190 185 175 0
d 193 190 185 175 0
d 194 1 2 6 7 12 13 18 23 24 29 30 35 40 45 50 55 60 65 70 75 80 85 90 95 100 105 110 115 120 125 130 135 140 145 150 154 158 162 167 171 175 180 185 190 0
d 196 154 13 0
d 197 195 154 13 0
d 198 195 154 13 0
d 199 1 2 6 7 12 13 18 23 24 29 30 35 40 45 50 55 60 65 70 75 80 85 90 95 100 105 110 115 120 125 130 135 140 145 150 154 158 162 167 171 175 180 185 190 195 0
d 201 195 175 0
d 202 200 195 175 0
d 203 200 195 175 0
d 204 1 2 6 7 12 13 18 23 24 29 30 35 40 45 50 55 60 65 70 75 80 85 90 95 100 105 110 115 120 125 130 135 140 145 150 154 158 162 167 171 175 180 185 190 195 200 0
d 207 7 13 175 0
d 208 205 7 13 175 0
d 209 205 7 13 175 0
d 210 1 2 6 7 12 13 18 23 24 29 30 35 40 45 50 55 60 65 70 75 80 85 90 95 100 105 110 115 120 125 130 135 140 145 150 154 158 162 167 171 175 180 185 190 195 200 205 0
d 212 24 171 0
d 213 211 24 171 0
d 214 211 24 171 0
d 215 1 2 6 7 12 13 18 23 24 29 30 35 40 45 50 55 60 65 70 75 80 85 90 95 100 105 110 115 120 125 130 135 140 145 150 154 158 162 167 171 175 180 185 190 195 200 205 211 0
d 217 162 211 0
d 218 216 162 211 0
d 219 216 162 211 0
d 220 1 2 6 7 12 13 18 23 24 29 30 35 40 45 50 55 60 65 70 75 80 85 90 95 100 105 110 115 120 125 130 135 140 145 150 154 158 162 167 171 175 180 185 190 195 200 205 211 216 0
d 222 185 211 0
d 223 221 185 211 0
d 224 221 185 211 0
d 225 1 2 6 7 12 13 18 23 24 29 30 35 40 45 50 55 60 65 70 75 80 85 90 95 100 105 110 115 120 125 130 135 140 145 150 154 158 162 167 171 175 180 185 190 195 200 205 211 216 221 0
d 227 195 211 0
d 228 226 195 211 0
d 229 226 195 211 0
d 230 1 2 6 7 12 13 18 23 24 29 30 35 40 45 50 55 60 65 70 75 80 85 90 95 100 105 110 115 120 125 130 135 140 145 150 154 158 162 167 171 175 180 185 190 195 200 205 211 216 221 226 0
d 232 7 13 211 0
d 233 231 7 13 211 0
d 234 231 7 13 211 0
d 235 1 2 6 7 12 13 18 23 24 29 30 35 40 45 50 55 60 65 70 75 80 85 90 95 100 105 110 115 120 125 130 135 140 145 150 154 158 162 167 171 175 180 185 190 195 200 205 211 216 221 226 231 0
d 237 167 30 0
d 238 236 167 30 0
d 239 236 167 30 0
d 240 1 2 6 7 12 13 18 23 24 29 30 35 40 45 50 55 60 65 70 75 80 85 90 95 100 105 110 115 120 125 130 135 140 145 150 154 158 162 167 171 175 180 185 190 195 200 205 211 216 221 226 231 236 0
d 242 162 236 0
d 243 241 162 236 0
d 244 241 162 236 0
d 245 1 2 6 7 12 13 18 23 24 29 30 35 40 45 50 55 60 65 70 75 80 85 90 95 100 105 110 115 120 125 130 135 140 145 150 154 158 162 167 171 175 180 185 190 195 200 205 211 216 221 226 231 236 241 0
d 247 185 236 0
d 248 246 185 236 0
d 249 246 185 236 0
d 250 1 2 6 7 12 13 18 23 24 29 30 35 40 45 50 55 60 65 70 75 80 85 90 95 100 105 110 115 120 125 130 135 140 145 150 154 158 162 167 171 175 180 185 190 195 200 205 211 216 221 226 231 236 241 246 0
d 252 195 236 0
d 253 251 195 236 0
d 254 251 195 236 0
d 255 1 2 6 7 12 13 18 23 24 29 30 35 40 45 50 55 60 65 70 75 80 85 90 95 100 105 110 115 120 125 130 135 140 145 150 154 158 162 167 171 175 180 185 190 195 200 205 211 216 221 226 231 236 241 246 251 0
d 257 7 13 236 0
d 258 256 7 13 236 0
d 259 256 7 13 236 0
d 260 1 2 6 7 12 13 18 23 24 29 30 35 40 45 50 55 60 65 70 75 80 85 90 95 100 105 110 115 120 125 130 135 140 145 150 154 158 162 167 171 175 180 185 190 195 200 205 211 216 221 226 231 236 241 246 251 256 0
d 262 261 24 30 0
d 263 261 24 30 0
d 264 1 2 6 7 12 13 18 23 24 29 30 35 40 45 50 55 60 65 70 75 80 85 90 95 100 105 110 115 120 125 130 135 140 145 150 154 158 162 167 171 175 180 185 190 195 200 205 211 216 221 226 231 236 241 246 251 256 261 0
d 266 162 261 0
d 267 265 162 261 0
d 268 265 162 261 0
d 269 1 2 6 7 12 13 18 23 24 29 30 35 40 45 50 55 60 65 70 75 80 85 90 95 100 105 110 115 120 125 130 135 140 145 150 154 158 162 167 171 175 180 185 190 195 200 205 211 216 221 226 231 236 241 246 251 256 261 265 0
d 271 185 261 0
d 272 270 185 261 0
d 273 270 185 261 0
d 274 1 2 6 7 12 13 18 23 24 29 30 35 40 45 50 55 60 65 70 75 80 85 90 95 100 105 110 115 120 125 130 135 140 145 150 154 158 162 167 171 175 180 185 190 195 200 205 211 216 221 226 231 236 241 246 251 256 261 265 270 0
d 276 195 261 0
d 277 275 195 261 0
d 278 275 195 261 0
d 279 1 2 6 7 12 13 18 23 24 29 30 35 40 45 50 55 60 65 70 75 80 85 90 95 100 105 110 115 120 125 130 135 140 145 150 154 158 162 167 171 175 180 185 190 195 200 205 211 216 221 226 231 236 241 246 251 256 261 265 270 275 0
d 281 7 13 261 0
d 282 280 7 13 261 0
d 283 280 7 13 261 0
d 284 1 2 6 7 12 13 18 23 24 29 30 35 40 45 50 55 60 65 70 75 80 85 90 95 100 105 110 115 120 125 130 135 140 145 150 154 158 162 167 171 175 180 185 190 195 200 205 211 216 221 226 231 236 241 246 251 256 261 265 270 275 280 0
d 287 2 286 0
d 288 2 286 216 0
d 290 2 289 0
d 291 2 289 221 0
d 292 2 286 216 289 221 0
d 294 2 293 0
d 295 2 293 226 0
d 297 2 296 0
d 298 2 296 231 0
d 299 2 293 226 296 231 0
d 300 2 286 216 289 221 293 226 296 231 0
d 301 285 2 286 216 289 221 293 226 296 231 0
d 302 285 2 286 216 289 221 293 226 296 231 0
d 303 1 2 6 7 12 13 18 23 24 29 30 35 40 45 50 55 60 65 70 75 80 85 90 95 100 105 110 115 120 125 130 135 140 145 150 154 158 162 167 171 175 180 185 190 195 200 205 211 216 221 226 231 236 241 246 251 256 261 265 270 275 280 285 286 289 293 296 0
d 306 2 305 0
d 307 2 305 241 0
d 309 2 308 0
d 310 2 308 246 0
d 311 2 305 241 308 246 0
d 313 2 312 0
d 314 2 312 251 0
d 316 2 315 0
d 317 2 315 256 0
d 318 2 312 251 315 256 0
d 319 2 305 241 308 246 312 251 315 256 0
d 320 304 2 305 241 308 246 312 251 315 256 0
d 321 304 2 305 241 308 246 312 251 315 256 0
d 322 1 2 6 7 12 13 18 23 24 29 30 35 40 45 50 55 60 65 70 75 80 85 90 95 100 105 110 115 120 125 130 135 140 145 150 154 158 162 167 171 175 180 185 190 195 200 205 211 216 221 226 231 236 241 246 251 256 261 265 270 275 280 285 286 289 293 296 304 305 308 312 315 0
d 325 2 324 0
d 326 2 324 265 0
d 328 2 327 0
d 329 2 327 270 0
d 330 2 324 265 327 270 0
d 332 2 331 0
d 333 2 331 275 0
d 335 2 334 0
d 336 2 334 280 0
d 337 2 331 275 334 280 0
d 338 2 324 265 327 270 331 275 334 280 0
d 339 323 2 324 265 327 270 331 275 334 280 0
d 340 323 2 324 265 327 270 331 275 334 280 0
d 341 1 2 6 7 12 13 18 23 24 29 30 35 40 45 50 55 60 65 70 75 80 85 90 95 100 105 110 115 120 125 130 135 140 145 150 154 158 162 167 171 175 180 185 190 195 200 205 211 216 221 226 231 236 241 246 251 256 261 265 270 275 280 285 286 289 293 296 304 305 308 312 315 323 324 327 331 334 0
d 344 2 343 0
d 345 2 343 180 0
d 347 2 346 0
d 348 2 346 190 0
d 349 2 343 180 346 190 0
d 350 342 2 343 180 346 190 0
d 351 342 2 343 180 346 190 0
d 352 1 2 6 7 12 13 18 23 24 29 30 35 40 45 50 55 60 65 70 75 80 85 90 95 100 105 110 115 120 125 130 135 140 145 150 154 158 162 167 171 175 180 185 190 195 200 205 211 216 221 226 231 236 241 246 251 256 261 265 270 275 280 285 286 289 293 296 304 305 308 312 315 323 324 327 331 334 342 343 346 0
d 355 2 354 0
d 356 2 354 200 0
d 358 2 357 0
d 359 2 357 205 0
d 360 2 354 200 357 205 0
d 361 353 2 354 200 357 205 0
d 362 353 2 354 200 357 205 0
d 363 1 2 6 7 12 13 18 23 24 29 30 35 40 45 50 55 60 65 70 75 80 85 90 95 100 105 110 115 120 125 130 135 140 145 150 154 158 162 167 171 175 180 185 190 195 200 205 211 216 221 226 231 236 241 246 251 256 261 265 270 275 280 285 286 289 293 296 304 305 308 312 315 323 324 327 331 334 342 343 346 353 354 357 0
d 365 150 364 0
d 366 150 364 180 0
d 368 150 367 0
d 369 150 367 190 0
d 370 150 364 180 367 190 0
d 372 150 371 0
d 373 150 371 200 0
d 375 150 374 0
d 376 150 374 205 0
d 377 150 371 200 374 205 0
d 378 150 364 180 367 190 371 200 374 205 0
d 380 150 379 0
d 381 150 379 216 0
d 383 150 382 0
d 384 150 382 221 0
d 385 150 379 216 382 221 0
d 387 444 2 226 0
d 389 150 388 0
d 390 150 388 231 0
d 391 444 2 226 150 388 231 0
d 392 150 379 216 382 221 444 2 226 388 231 0
d 393 150 364 180 367 190 371 200 374 205 379 216 382 221 444 2 226 388 231 0
d 395 150 394 0
d 396 150 394 241 0
d 398 150 397 0
d 399 150 397 246 0
d 400 150 394 241 397 246 0
d 402 150 401 0
d 403 150 401 251 0
d 405 150 404 0
d 406 150 404 256 0
d 407 150 401 251 404 256 0
d 408 150 394 241 397 246 401 251 404 256 0
d 410 150 409 0
d 411 150 409 265 0
d 413 150 412 0
d 414 150 412 270 0
d 415 150 409 265 412 270 0
d 417 150 416 0
d 418 150 416 275 0
d 420 150 419 0
d 421 150 419 280 0
d 422 150 416 275 419 280 0
d 423 150 409 265 412 270 416 275 419 280 0
d 424 150 394 241 397 246 401 251 404 256 409 265 412 270 416 275 419 280 0
d 425 150 364 180 367 190 371 200 374 205 379 216 382 221 444 2 226 388 231 394 241 397 246 401 251 404 256 409 265 412 270 416 275 419 280 0
d 427 150 364 180 367 190 371 200 374 205 379 216 382 221 444 2 226 388 231 394 241 397 246 401 251 404 256 409 265 412 270 416 275 419 280 285 304 323 342 353 0
d 428 1 364 0
d 429 1 364 40 0
d 430 1 367 0
d 431 1 367 50 0
d 432 1 364 40 367 50 0
d 433 1 371 0
d 434 1 371 60 0
d 435 1 374 0
d 436 1 374 70 0
d 437 1 371 60 374 70 0
d 438 1 364 40 367 50 371 60 374 70 0
d 439 1 379 0
d 440 1 379 80 0
d 441 1 382 0
d 442 1 382 85 0
d 443 1 379 80 382 85 0
d 445 1 444 0
d 446 1 444 90 0
d 447 1 388 0
d 448 1 388 95 0
d 449 1 444 90 388 95 0
d 450 1 379 80 382 85 444 90 388 95 0
d 451 1 364 40 367 50 371 60 374 70 379 80 382 85 444 90 388 95 0
d 452 1 394 0
d 453 1 394 105 0
d 454 1 397 0
d 455 1 397 110 0
d 456 1 394 105 397 110 0
d 457 1 401 0
d 458 1 401 115 0
d 459 1 404 0
d 460 1 404 120 0
d 461 1 401 115 404 120 0
d 462 1 394 105 397 110 401 115 404 120 0
d 463 1 409 0
d 464 1 409 130 0
d 465 1 412 0
d 466 1 412 135 0
d 467 1 409 130 412 135 0
d 468 1 416 0
d 469 1 416 140 0
d 470 1 419 0
d 471 1 419 145 0
d 472 1 416 140 419 145 0
d 473 1 409 130 412 135 416 140 419 145 0
d 474 1 394 105 397 110 401 115 404 120 409 130 412 135 416 140 419 145 0
d 475 1 364 40 367 50 371 60 374 70 379 80 382 85 444 90 388 95 394 105 397 110 401 115 404 120 409 130 412 135 416 140 419 145 0
d 476 2 343 40 0
d 477 2 346 50 0
d 478 2 343 40 346 50 0
d 479 2 354 60 0
d 480 2 357 70 0
d 481 2 354 60 357 70 0
d 482 2 343 40 346 50 354 60 357 70 0
d 483 2 286 80 0
d 484 2 289 85 0
d 485 2 286 80 289 85 0
d 486 2 293 90 0
d 487 2 296 95 0
d 488 2 293 90 296 95 0
d 489 2 286 80 289 85 293 90 296 95 0
d 490 2 343 40 346 50 354 60 357 70 286 80 289 85 293 90 296 95 0
d 491 2 305 105 0
d 492 2 308 110 0
d 493 2 305 105 308 110 0
d 494 2 312 115 0
d 495 2 315 120 0
d 496 2 312 115 315 120 0
d 497 2 305 105 308 110 312 115 315 120 0
d 498 2 324 130 0
d 499 2 327 135 0
d 500 2 324 130 327 135 0
d 501 2 331 140 0
d 502 2 334 145 0
d 503 2 331 140 334 145 0
d 504 2 324 130 327 135 331 140 334 145 0
d 505 2 305 105 308 110 312 115 315 120 324 130 327 135 331 140 334 145 0
d 506 2 343 40 346 50 354 60 357 70 286 80 289 85 293 90 296 95 305 105 308 110 312 115 315 120 324 130 327 135 331 140 334 145 0
d 507 1 364 40 367 50 371 60 374 70 379 80 382 85 444 90 388 95 394 105 397 110 401 115 404 120 409 130 412 135 416 140 419 145 2 343 346 354 357 286 289 293 296 305 308 312 315 324 327 331 334 0
d 508 150 364 180 367 190 371 200 374 205 379 216 382 221 444 2 226 388 231 394 241 397 246 401 251 404 256 409 265 412 270 416 275 419 280 285 304 323 342 353 1 40 50 60 70 80 85 90 95 105 110 115 120 130 135 140 145 343 346 354 357 286 289 293 296 305 308 312 315 324 327 331 334 0
d 509 1 2 6 7 12 13 18 23 24 29 30 35 40 45 50 55 60 65 70 75 80 85 90 95 100 105 110 115 120 125 130 135 140 145 150 154 158 162 167 171 175 180 185 190 195 200 205 211 216 221 226 231 236 241 246 251 256 261 265 270 275 280 285 286 289 293 296 304 305 308 312 315 323 324 327 331 334 342 343 346 353 354 357 364 367 371 374 379 382 444 388 394 397 401 404 409 412 416 419 0
3 2 0
-3 -2 0
4 -1 -3 0
4 1 3 0
-4 -1 3 0
-4 1 -3 0
5 4 0
-5 -4 0
8 7 0
-8 -7 0
9 -6 -8 0
9 6 8 0
-9 -6 8 0
-9 6 -8 0
10 9 0
-10 -9 0
11 -5 0
11 -10 0
-11 5 10 0
14 13 0
-14 -13 0
15 -12 -14 0
15 12 14 0
-15 -12 14 0
-15 12 -14 0
16 15 0
-16 -15 0
17 -11 0
17 -16 0
-17 11 16 0
-19 6 0
-19 12 0
19 -6 -12 0
20 -18 -19 0
20 18 19 0
-20 -18 19 0
-20 18 -19 0
21 20 0
-21 -20 0
22 -17 0
22 -21 0
-22 17 21 0
25 24 0
-25 -24 0
26 -23 -25 0
26 23 25 0
-26 -23 25 0
-26 23 -25 0
27 26 0
-27 -26 0
28 -22 0
28 -27 0
-28 22 27 0
31 30 0
-31 -30 0
32 -29 -31 0
32 29 31 0
-32 -29 31 0
-32 29 -31 0
33 32 0
-33 -32 0
34 -28 0
34 -33 0
-34 28 33 0
-36 23 0
-36 29 0
36 -23 -29 0
37 -35 -36 0
37 35 36 0
-37 -35 36 0
-37 35 -36 0
38 37 0
-38 -37 0
39 -34 0
39 -38 0
-39 34 38 0
-41 18 0
-41 35 0
41 -18 -35 0
42 -40 -41 0
42 40 41 0
-42 -40 41 0
-42 40 -41 0
43 42 0
-43 -42 0
44 -39 0
44 -43 0
-44 39 43 0
-46 7 0
-46 12 0
46 -7 -12 0
47 -45 -46 0
47 45 46 0
-47 -45 46 0
-47 45 -46 0
48 47 0
-48 -47 0
49 -44 0
49 -48 0
-49 44 48 0
-51 45 0
-51 35 0
51 -45 -35 0
52 -50 -51 0
52 50 51 0
-52 -50 51 0
-52 50 -51 0
53 52 0
-53 -52 0
54 -49 0
54 -53 0
-54 49 53 0
-56 6 0
-56 13 0
56 -6 -13 0
57 -55 -56 0
57 55 56 0
-57 -55 56 0
-57 55 -56 0
58 57 0
-58 -57 0
59 -54 0
59 -58 0
-59 54 58 0
-61 55 0
-61 35 0
61 -55 -35 0
62 -60 -61 0
62 60 61 0
-62 -60 61 0
-62 60 -61 0
63 62 0
-63 -62 0
64 -59 0
64 -63 0
-64 59 63 0
-66 7 0
-66 13 0
66 -7 -13 0
67 -65 -66 0
67 65 66 0
-67 -65 66 0
-67 65 -66 0
68 67 0
-68 -67 0
69 -64 0
69 -68 0
-69 64 68 0
-71 65 0
-71 35 0
71 -65 -35 0
72 -70 -71 0
72 70 71 0
-72 -70 71 0
-72 70 -71 0
73 72 0
-73 -72 0
74 -69 0
74 -73 0
-74 69 73 0
-76 24 0
-76 29 0
76 -24 -29 0
77 -75 -76 0
77 75 76 0
-77 -75 76 0
-77 75 -76 0
78 77 0
-78 -77 0
79 -74 0
79 -78 0
-79 74 78 0
-81 18 0
-81 75 0
81 -18 -75 0
82 -80 -81 0
82 80 81 0
-82 -80 81 0
-82 80 -81 0
83 82 0
-83 -82 0
84 -79 0
84 -83 0
-84 79 83 0
-86 45 0
-86 75 0
86 -45 -75 0
87 -85 -86 0
87 85 86 0
-87 -85 86 0
-87 85 -86 0
88 87 0
-88 -87 0
89 -84 0
89 -88 0
-89 84 88 0
-91 55 0
-91 75 0
91 -55 -75 0
92 -90 -91 0
92 90 91 0
-92 -90 91 0
-92 90 -91 0
93 92 0
-93 -92 0
94 -89 0
94 -93 0
-94 89 93 0
-96 65 0
-96 75 0
96 -65 -75 0
97 -95 -96 0
97 95 96 0
-97 -95 96 0
-97 95 -96 0
98 97 0
-98 -97 0
99 -94 0
99 -98 0
-99 94 98 0
-101 23 0
-101 30 0
101 -23 -30 0
102 -100 -101 0
102 100 101 0
-102 -100 101 0
-102 100 -101 0
103 102 0
-103 -102 0
104 -99 0
104 -103 0
-104 99 103 0
-106 18 0
-106 100 0
106 -18 -100 0
107 -105 -106 0
107 105 106 0
-107 -105 106 0
-107 105 -106 0
108 107 0
-108 -107 0
109 -104 0
109 -108 0
-109 104 108 0
-111 45 0
-111 100 0
111 -45 -100 0
112 -110 -111 0
112 110 111 0
-112 -110 111 0
-112 110 -111 0
113 112 0
-113 -112 0
114 -109 0
114 -113 0
-114 109 113 0
-116 55 0
-116 100 0
116 -55 -100 0
117 -115 -116 0
117 115 116 0
-117 -115 116 0
-117 115 -116 0
118 117 0
-118 -117 0
119 -114 0
119 -118 0
-119 114 118 0
-121 65 0
-121 100 0
121 -65 -100 0
122 -120 -121 0
122 120 121 0
-122 -120 121 0
-122 120 -121 0
123 122 0
-123 -122 0
124 -119 0
124 -123 0
-124 119 123 0
-126 24 0
-126 30 0
126 -24 -30 0
127 -125 -126 0
127 125 126 0
-127 -125 126 0
-127 125 -126 0
128 127 0
-128 -127 0
129 -124 0
129 -128 0
-129 124 128 0
-131 18 0
-131 125 0
131 -18 -125 0
132 -130 -131 0
132 130 131 0
-132 -130 131 0
-132 130 -131 0
133 132 0
-133 -132 0
134 -129 0
134 -133 0
-134 129 133 0
-136 45 0
-136 125 0
136 -45 -125 0
137 -135 -136 0
137 135 136 0
-137 -135 136 0
-137 135 -136 0
138 137 0
-138 -137 0
139 -134 0
139 -138 0
-139 134 138 0
-141 55 0
-141 125 0
141 -55 -125 0
142 -140 -141 0
142 140 141 0
-142 -140 141 0
-142 140 -141 0
143 142 0
-143 -142 0
144 -139 0
144 -143 0
-144 139 143 0
-146 65 0
-146 125 0
146 -65 -125 0
147 -145 -146 0
147 145 146 0
-147 -145 146 0
-147 145 -146 0
148 147 0
-148 -147 0
149 -144 0
149 -148 0
-149 144 148 0
151 -150 -3 0
151 150 3 0
-151 -150 3 0
-151 150 -3 0
152 151 0
-152 -151 0
153 -149 0
153 -152 0
-153 149 152 0
155 -154 -8 0
155 154 8 0
-155 -154 8 0
-155 154 -8 0
156 155 0
-156 -155 0
157 -153 0
157 -156 0
-157 153 156 0
159 -158 -14 0
159 158 14 0
-159 -158 14 0
-159 158 -14 0
160 159 0
-160 -159 0
161 -157 0
161 -160 0
-161 157 160 0
-163 154 0
-163 158 0
163 -154 -158 0
164 -162 -163 0
164 162 163 0
-164 -162 163 0
-164 162 -163 0
165 164 0
-165 -164 0
166 -161 0
166 -165 0
-166 161 165 0
168 -167 -25 0
168 167 25 0
-168 -167 25 0
-168 167 -25 0
169 168 0
-169 -168 0
170 -166 0
170 -169 0
-170 166 169 0
172 -171 -31 0
172 171 31 0
-172 -171 31 0
-172 171 -31 0
173 172 0
-173 -172 0
174 -170 0
174 -173 0
-174 170 173 0
-176 167 0
-176 171 0
176 -167 -171 0
177 -175 -176 0
177 175 176 0
-177 -175 176 0
-177 175 -176 0
178 177 0
-178 -177 0
179 -174 0
179 -178 0
-179 174 178 0
-181 162 0
-181 175 0
181 -162 -175 0
182 -180 -181 0
182 180 181 0
-182 -180 181 0
-182 180 -181 0
183 182 0
-183 -182 0
184 -179 0
184 -183 0
-184 179 183 0
-186 7 0
-186 158 0
186 -7 -158 0
187 -185 -186 0
187 185 186 0
-187 -185 186 0
-187 185 -186 0
188 187 0
-188 -187 0
189 -184 0
189 -188 0
-189 184 188 0
-191 185 0
-191 175 0
191 -185 -175 0
192 -190 -191 0
192 190 191 0
-192 -190 191 0
-192 190 -191 0
193 192 0
-193 -192 0
194 -189 0
194 -193 0
-194 189 193 0
-196 154 0
-196 13 0
196 -154 -13 0
197 -195 -196 0
197 195 196 0
-197 -195 196 0
-197 195 -196 0
198 197 0
-198 -197 0
199 -194 0
199 -198 0
-199 194 198 0
-201 195 0
-201 175 0
201 -195 -175 0
202 -200 -201 0
202 200 201 0
-202 -200 201 0
-202 200 -201 0
203 202 0
-203 -202 0
204 -199 0
204 -203 0
-204 199 203 0
-207 206 0
-207 175 0
207 -206 -175 0
208 -205 -207 0
208 205 207 0
-208 -205 207 0
-208 205 -207 0
209 208 0
-209 -208 0
210 -204 0
210 -209 0
-210 204 209 0
-212 24 0
-212 171 0
212 -24 -171 0
213 -211 -212 0
213 211 212 0
-213 -211 212 0
-213 211 -212 0
214 213 0
-214 -213 0
215 -210 0
215 -214 0
-215 210 214 0
-217 162 0
-217 211 0
217 -162 -211 0
218 -216 -217 0
218 216 217 0
-218 -216 217 0
-218 216 -217 0
219 218 0
-219 -218 0
220 -215 0
220 -219 0
-220 215 219 0
-222 185 0
-222 211 0
222 -185 -211 0
223 -221 -222 0
223 221 222 0
-223 -221 222 0
-223 221 -222 0
224 223 0
-224 -223 0
225 -220 0
225 -224 0
-225 220 224 0
-227 195 0
-227 211 0
227 -195 -211 0
228 -226 -227 0
228 226 227 0
-228 -226 227 0
-228 226 -227 0
229 228 0
-229 -228 0
230 -225 0
230 -229 0
-230 225 229 0
-232 206 0
-232 211 0
232 -206 -211 0
233 -231 -232 0
233 231 232 0
-233 -231 232 0
-233 231 -232 0
234 233 0
-234 -233 0
235 -230 0
235 -234 0
-235 230 234 0
-237 167 0
-237 30 0
237 -167 -30 0
238 -236 -237 0
238 236 237 0
-238 -236 237 0
-238 236 -237 0
239 238 0
-239 -238 0
240 -235 0
240 -239 0
-240 235 239 0
-242 162 0
-242 236 0
242 -162 -236 0
243 -241 -242 0
243 241 242 0
-243 -241 242 0
-243 241 -242 0
244 243 0
-244 -243 0
245 -240 0
245 -244 0
-245 240 244 0
-247 185 0
-247 236 0
247 -185 -236 0
248 -246 -247 0
248 246 247 0
-248 -246 247 0
-248 246 -247 0
249 248 0
-249 -248 0
250 -245 0
250 -249 0
-250 245 249 0
-252 195 0
-252 236 0
252 -195 -236 0
253 -251 -252 0
253 251 252 0
-253 -251 252 0
-253 251 -252 0
254 253 0
-254 -253 0
255 -250 0
255 -254 0
-255 250 254 0
-257 206 0
-257 236 0
257 -206 -236 0
258 -256 -257 0
258 256 257 0
-258 -256 257 0
-258 256 -257 0
259 258 0
-259 -258 0
260 -255 0
260 -259 0
-260 255 259 0
262 -261 -126 0
262 261 126 0
-262 -261 126 0
-262 261 -126 0
263 262 0
-263 -262 0
264 -260 0
264 -263 0
-264 260 263 0
-266 162 0
-266 261 0
266 -162 -261 0
267 -265 -266 0
267 265 266 0
-267 -265 266 0
-267 265 -266 0
268 267 0
-268 -267 0
269 -264 0
269 -268 0
-269 264 268 0
-271 185 0
-271 261 0
271 -185 -261 0
272 -270 -271 0
272 270 271 0
-272 -270 271 0
-272 270 -271 0
273 272 0
-273 -272 0
274 -269 0
274 -273 0
-274 269 273 0
-276 195 0
-276 261 0
276 -195 -261 0
277 -275 -276 0
277 275 276 0
-277 -275 276 0
-277 275 -276 0
278 277 0
-278 -277 0
279 -274 0
279 -278 0
-279 274 278 0
-281 206 0
-281 261 0
281 -206 -261 0
282 -280 -281 0
282 280 281 0
-282 -280 281 0
-282 280 -281 0
283 282 0
-283 -282 0
284 -279 0
284 -283 0
-284 279 283 0
-287 2 0
-287 286 0
287 -2 -286 0
-288 287 0
-288 216 0
288 -287 -216 0
-290 2 0
-290 289 0
290 -2 -289 0
-291 290 0
-291 221 0
291 -290 -221 0
292 -288 0
292 -291 0
-292 288 291 0
-294 2 0
-294 293 0
294 -2 -293 0
-295 294 0
-295 226 0
295 -294 -226 0
-297 2 0
-297 296 0
297 -2 -296 0
-298 297 0
-298 231 0
298 -297 -231 0
299 -295 0
299 -298 0
-299 295 298 0
300 -292 0
300 -299 0
-300 292 299 0
301 -285 -300 0
301 285 300 0
-301 -285 300 0
-301 285 -300 0
302 301 0
-302 -301 0
303 -284 0
303 -302 0
-303 284 302 0
-306 2 0
-306 305 0
306 -2 -305 0
-307 306 0
-307 241 0
307 -306 -241 0
-309 2 0
-309 308 0
309 -2 -308 0
-310 309 0
-310 246 0
310 -309 -246 0
311 -307 0
311 -310 0
-311 307 310 0
-313 2 0
-313 312 0
313 -2 -312 0
-314 313 0
-314 251 0
314 -313 -251 0
-316 2 0
-316 315 0
316 -2 -315 0
-317 316 0
-317 256 0
317 -316 -256 0
318 -314 0
318 -317 0
-318 314 317 0
319 -311 0
319 -318 0
-319 311 318 0
320 -304 -319 0
320 304 319 0
-320 -304 319 0
-320 304 -319 0
321 320 0
-321 -320 0
322 -303 0
322 -321 0
-322 303 321 0
-325 2 0
-325 324 0
325 -2 -324 0
-326 325 0
-326 265 0
326 -325 -265 0
-328 2 0
-328 327 0
328 -2 -327 0
-329 328 0
-329 270 0
329 -328 -270 0
330 -326 0
330 -329 0
-330 326 329 0
-332 2 0
-332 331 0
332 -2 -331 0
-333 332 0
-333 275 0
333 -332 -275 0
-335 2 0
-335 334 0
335 -2 -334 0
-336 335 0
-336 280 0
336 -335 -280 0
337 -333 0
337 -336 0
-337 333 336 0
338 -330 0
338 -337 0
-338 330 337 0
339 -323 -338 0
339 323 338 0
-339 -323 338 0
-339 323 -338 0
340 339 0
-340 -339 0
341 -322 0
341 -340 0
-341 322 340 0
-344 2 0
-344 343 0
344 -2 -343 0
-345 344 0
-345 180 0
345 -344 -180 0
-347 2 0
-347 346 0
347 -2 -346 0
348 -347 0
348 -190 0
-348 347 190 0
349 -345 0
349 -348 0
-349 345 348 0
350 -342 -349 0
350 342 349 0
-350 -342 349 0
-350 342 -349 0
351 350 0
-351 -350 0
352 -341 0
352 -351 0
-352 341 351 0
-355 2 0
-355 354 0
355 -2 -354 0
-356 355 0
-356 200 0
356 -355 -200 0
-358 2 0
-358 357 0
358 -2 -357 0
-359 358 0
-359 205 0
359 -358 -205 0
360 -356 0
360 -359 0
-360 356 359 0
361 -353 -360 0
361 353 360 0
-361 -353 360 0
-361 353 -360 0
362 361 0
-362 -361 0
363 -352 0
363 -362 0
-363 352 362 0
-365 150 0
-365 364 0
365 -150 -364 0
-366 365 0
-366 180 0
366 -365 -180 0
-368 150 0
-368 367 0
368 -150 -367 0
-369 368 0
-369 190 0
369 -368 -190 0
370 -366 0
370 -369 0
-370 366 369 0
-372 150 0
-372 371 0
372 -150 -371 0
-373 372 0
-373 200 0
373 -372 -200 0
-375 150 0
-375 374 0
375 -150 -374 0
-376 375 0
-376 205 0
376 -375 -205 0
377 -373 0
377 -376 0
-377 373 376 0
378 -370 0
378 -377 0
-378 370 377 0
-380 150 0
-380 379 0
380 -150 -379 0
-381 380 0
-381 216 0
381 -380 -216 0
-383 150 0
-383 382 0
383 -150 -382 0
-384 383 0
-384 221 0
384 -383 -221 0
385 -381 0
385 -384 0
-385 381 384 0
-387 386 0
-387 226 0
387 -386 -226 0
-389 150 0
-389 388 0
389 -150 -388 0
-390 389 0
-390 231 0
390 -389 -231 0
391 -387 0
391 -390 0
-391 387 390 0
392 -385 0
392 -391 0
-392 385 391 0
393 -378 0
393 -392 0
-393 378 392 0
-395 150 0
-395 394 0
395 -150 -394 0
-396 395 0
-396 241 0
396 -395 -241 0
-398 150 0
-398 397 0
398 -150 -397 0
-399 398 0
-399 246 0
399 -398 -246 0
400 -396 0
400 -399 0
-400 396 399 0
-402 150 0
-402 401 0
402 -150 -401 0
-403 402 0
-403 251 0
403 -402 -251 0
-405 150 0
-405 404 0
405 -150 -404 0
-406 405 0
-406 256 0
406 -405 -256 0
407 -403 0
407 -406 0
-407 403 406 0
408 -400 0
408 -407 0
-408 400 407 0
-410 150 0
-410 409 0
410 -150 -409 0
-411 410 0
-411 265 0
411 -410 -265 0
-413 150 0
-413 412 0
413 -150 -412 0
-414 413 0
-414 270 0
414 -413 -270 0
415 -411 0
415 -414 0
-415 411 414 0
-417 150 0
-417 416 0
417 -150 -416 0
-418 417 0
-418 275 0
418 -417 -275 0
-420 150 0
-420 419 0
420 -150 -419 0
-421 420 0
-421 280 0
421 -420 -280 0
422 -418 0
422 -421 0
-422 418 421 0
423 -415 0
423 -422 0
-423 415 422 0
424 -408 0
424 -423 0
-424 408 423 0
425 -393 0
425 -424 0
-425 393 424 0
427 -425 0
427 -426 0
-427 425 426 0
-428 1 0
-428 364 0
428 -1 -364 0
-429 428 0
-429 40 0
429 -428 -40 0
-430 1 0
-430 367 0
430 -1 -367 0
-431 430 0
-431 50 0
431 -430 -50 0
432 -429 0
432 -431 0
-432 429 431 0
-433 1 0
-433 371 0
433 -1 -371 0
-434 433 0
-434 60 0
434 -433 -60 0
-435 1 0
-435 374 0
435 -1 -374 0
-436 435 0
-436 70 0
436 -435 -70 0
437 -434 0
437 -436 0
-437 434 436 0
438 -432 0
438 -437 0
-438 432 437 0
-439 1 0
-439 379 0
439 -1 -379 0
-440 439 0
-440 80 0
440 -439 -80 0
-441 1 0
-441 382 0
441 -1 -382 0
-442 441 0
-442 85 0
442 -441 -85 0
443 -440 0
443 -442 0
-443 440 442 0
-445 1 0
-445 444 0
445 -1 -444 0
-446 445 0
-446 90 0
446 -445 -90 0
-447 1 0
-447 388 0
447 -1 -388 0
-448 447 0
-448 95 0
448 -447 -95 0
449 -446 0
449 -448 0
-449 446 448 0
450 -443 0
450 -449 0
-450 443 449 0
451 -438 0
451 -450 0
-451 438 450 0
-452 1 0
-452 394 0
452 -1 -394 0
-453 452 0
-453 105 0
453 -452 -105 0
-454 1 0
-454 397 0
454 -1 -397 0
-455 454 0
-455 110 0
455 -454 -110 0
456 -453 0
456 -455 0
-456 453 455 0
-457 1 0
-457 401 0
457 -1 -401 0
-458 457 0
-458 115 0
458 -457 -115 0
-459 1 0
-459 404 0
459 -1 -404 0
-460 459 0
-460 120 0
460 -459 -120 0
461 -458 0
461 -460 0
-461 458 460 0
462 -456 0
462 -461 0
-462 456 461 0
-463 1 0
-463 409 0
463 -1 -409 0
-464 463 0
-464 130 0
464 -463 -130 0
-465 1 0
-465 412 0
465 -1 -412 0
-466 465 0
-466 135 0
466 -465 -135 0
467 -464 0
467 -466 0
-467 464 466 0
-468 1 0
-468 416 0
468 -1 -416 0
-469 468 0
-469 140 0
469 -468 -140 0
-470 1 0
-470 419 0
470 -1 -419 0
-471 470 0
-471 145 0
471 -470 -145 0
472 -469 0
472 -471 0
-472 469 471 0
473 -467 0
473 -472 0
-473 467 472 0
474 -462 0
474 -473 0
-474 462 473 0
475 -451 0
475 -474 0
-475 451 474 0
-476 344 0
-476 40 0
476 -344 -40 0
-477 347 0
-477 50 0
477 -347 -50 0
478 -476 0
478 -477 0
-478 476 477 0
-479 355 0
-479 60 0
479 -355 -60 0
-480 358 0
-480 70 0
480 -358 -70 0
481 -479 0
481 -480 0
-481 479 480 0
482 -478 0
482 -481 0
-482 478 481 0
-483 287 0
-483 80 0
483 -287 -80 0
-484 290 0
-484 85 0
484 -290 -85 0
485 -483 0
485 -484 0
-485 483 484 0
-486 294 0
-486 90 0
486 -294 -90 0
-487 297 0
-487 95 0
487 -297 -95 0
488 -486 0
488 -487 0
-488 486 487 0
489 -485 0
489 -488 0
-489 485 488 0
490 -482 0
490 -489 0
-490 482 489 0
-491 306 0
-491 105 0
491 -306 -105 0
-492 309 0
-492 110 0
492 -309 -110 0
493 -491 0
493 -492 0
-493 491 492 0
-494 313 0
-494 115 0
494 -313 -115 0
-495 316 0
-495 120 0
495 -316 -120 0
496 -494 0
496 -495 0
-496 494 495 0
497 -493 0
497 -496 0
-497 493 496 0
-498 325 0
-498 130 0
498 -325 -130 0
-499 328 0
-499 135 0
499 -328 -135 0
500 -498 0
500 -499 0
-500 498 499 0
-501 332 0
-501 140 0
501 -332 -140 0
-502 335 0
-502 145 0
502 -335 -145 0
503 -501 0
503 -502 0
-503 501 502 0
504 -500 0
504 -503 0
-504 500 503 0
505 -497 0
505 -504 0
-505 497 504 0
506 -490 0
506 -505 0
-506 490 505 0
507 -475 0
507 -506 0
-507 475 506 0
508 -427 -507 0
508 427 507 0
-508 -427 507 0
-508 427 -507 0
509 -363 0
509 -508 0
-509 363 508 0
509 0
